


































































































42 19 58 29 22 
10 53 46 76 65 
34 71 5 43 20 
55 40 13 12 
26 36 47 74 37 
3 60 15 72 38 
35 54 11 23 69 
68 1 32 48 27 
62 50 0 49 51 45 
70 8 9 2 63 
67 33 25 52 59 39 
44 66 31 18 6 
17 64 16 57 4 30 
14 21 41 75 7 
24 28 56 73 61 

